\ENCODING=ISO-8859-1
\Problem name: 

Minimize
 obj: x1 + x2 + x3 + x4 + x5 + x6 + x7 + x8 + x9 + x10 + x11 + x12 + x13 + x14
      + x15 + x16 + x17 + x18 + x19 + 2 x20 + 2 x21 + 2 x22 + 2 x23 + 2 x24
      + 2 x25 + 2 x26 + 2 x27 + 2 x28 + 2 x29 + 2 x30 + 2 x31 + 2 x32 + 2 x33
      + 2 x34 + 2 x35 + 2 x36 + 2 x37 + 2 x38 + 3 x39 + 3 x40 + 3 x41 + 3 x42
      + 3 x43 + 3 x44 + 3 x45 + 3 x46 + 3 x47 + 3 x48 + 3 x49 + 3 x50 + 3 x51
      + 3 x52 + 3 x53 + 3 x54 + 3 x55 + 3 x56 + 3 x57 + 3 x58 + 3 x59 + 3 x60
      + 3 x61 + 3 x62 + 3 x63 + 3 x64 + 3 x65 + 3 x66 + 3 x67 + 4 x68 + 4 x69
      + 4 x70 + 4 x71 + 4 x72 + 4 x73 + 4 x74 + 4 x75 + 4 x76 + 4 x77 + 4 x78
      + 4 x79 + 4 x80 + 4 x81 + 4 x82 + 4 x83 + 4 x84 + 5 x85 + 5 x86 + 5 x87
      + 5 x88 + 5 x89 + 5 x90 + 5 x91 + 5 x92 + 5 x93 + 5 x94 + 5 x95 + 5 x96
      + 5 x97 + 5 x98 + 5 x99 + 5 x100 + 5 x101 + 5 x102 + 5 x103 + 5 x104
      + 5 x105 + 5 x106 + 6 x107 + 6 x108 + 6 x109 + 6 x110 + 6 x111 + 6 x112
      + 6 x113 + 6 x114 + 6 x115 + 7 x116 + 7 x117 + 7 x118 + 7 x119 + 8 x120
      + 8 x121 + 8 x122 + 8 x123 + 8 x124 + 8 x125 + 8 x126 + 8 x127 + 8 x128
      + 8 x129 + 8 x130 + 8 x131 + 8 x132 + 8 x133 + 8 x134 + 9 x135 + 9 x136
      + 9 x137 + 9 x138 + 9 x139 + 9 x140 + 9 x141 + 9 x142 + 9 x143 + 9 x144
      + 9 x145 + 9 x146 + 10 x147 + 10 x148 + 10 x149 + 10 x150 + 10 x151
      + 11 x152 + 11 x153 + 11 x154 + 11 x155 + 11 x156 + 11 x157 + 11 x158
      + 11 x159 + 11 x160 + 11 x161 + 12 x162 + 12 x163 + 12 x164 + 12 x165
      + 12 x166 + 13 x167 + 13 x168 + 13 x169 + 13 x170 + 13 x171 + 13 x172
      + 14 x173 + 14 x174 + 14 x175 + 15 x176 + 15 x177 + 16 x178 + 16 x179
      + 16 x180 + 16 x181 + 17 x182 + 17 x183 + 17 x184 + 17 x185 + 18 x186
      + 18 x187 + 18 x188 + 18 x189 + 20 x190 + 20 x191 + 21 x192 + 21 x193
      + 22 x194
Subject To
 c1:   x19 + x56 + x126 + x192 >= 1
 c2:   x8 + x11 + x20 + x131 + x151 + x173 >= 1
 c3:   x9 + x42 + x100 + x121 + x156 >= 1
 c4:   x106 + x108 + x182 >= 1
 c5:   x54 + x138 + x167 >= 1
 c6:   x110 + x134 + x143 + x145 + x147 + x163 + x166 + x182 + x184 + x191 >= 1
 c7:   x32 + x47 + x69 + x70 + x117 + x120 + x148 >= 1
 c8:   x42 + x49 + x59 + x69 + x113 + x125 + x157 >= 1
 c9:   x7 + x14 + x17 + x91 + x153 >= 1
 c10:  x94 + x111 + x135 + x158 + x173 + x178 >= 1
 c11:  x48 + x67 + x71 + x81 + x89 + x167 + x168 + x192 >= 1
 c12:  x16 + x60 + x102 >= 1
 c13:  x1 + x136 + x172 + x188 >= 1
 c14:  x10 + x66 + x67 + x101 + x107 >= 1
 c15:  x6 + x48 + x122 + x165 + x178 >= 1
 c16:  x21 + x121 + x131 + x167 >= 1
 c17:  x22 + x27 + x151 >= 1
 c18:  x3 >= 1
 c19:  x11 + x70 + x147 + x173 + x177 >= 1
 c20:  x20 + x39 + x68 + x109 >= 1
 c21:  x52 + x53 + x72 + x124 + x153 + x194 >= 1
 c22:  x21 + x30 + x97 + x113 + x142 >= 1
 c23:  x24 + x104 + x188 >= 1
 c24:  x65 + x115 + x169 + x182 >= 1
 c25:  x24 + x83 + x149 + x155 + x168 >= 1
 c26:  x39 + x49 + x137 >= 1
 c27:  x140 + x171 + x175 + x184 >= 1
 c28:  x9 + x40 + x55 + x186 >= 1
 c29:  x127 + x139 + x147 + x174 + x190 + x194 >= 1
 c30:  x37 + x94 + x109 + x140 + x147 + x163 + x193 >= 1
 c31:  x7 + x48 + x52 + x72 + x123 + x127 + x169 >= 1
 c32:  x41 + x74 + x187 + x193 >= 1
 c33:  x44 + x49 + x78 + x120 + x153 + x163 + x165 >= 1
 c34:  x20 + x61 + x150 + x162 >= 1
 c35:  x79 + x105 + x168 >= 1
 c36:  x10 + x54 + x78 + x101 + x107 + x179 + x191 >= 1
 c37:  x6 + x12 + x178 + x189 >= 1
 c38:  x30 + x39 >= 1
 c39:  x71 + x90 + x123 + x180 >= 1
 c40:  x1 + x8 + x90 + x114 + x152 + x164 >= 1
 c41:  x108 + x160 + x175 + x183 >= 1
 c42:  x1 + x73 + x162 + x178 >= 1
 c43:  x81 + x85 + x87 + x116 + x136 + x154 >= 1
 c44:  x7 + x33 + x65 + x75 + x143 + x163 >= 1
 c45:  x109 + x133 + x173 + x190 >= 1
 c46:  x88 + x130 + x146 + x164 >= 1
 c47:  x1 + x118 + x122 + x139 >= 1
 c48:  x32 + x47 + x88 + x95 + x120 + x132 + x158 + x193 >= 1
 c49:  x38 + x82 + x86 >= 1
 c50:  x36 + x44 + x135 + x147 + x158 + x161 + x177 >= 1
 c51:  x5 + x54 + x157 >= 1
 c52:  x12 + x59 + x146 >= 1
 c53:  x44 + x57 + x69 + x142 >= 1
 c54:  x51 >= 1
 c55:  x60 + x103 >= 1
 c56:  x25 + x85 + x190 >= 1
 c57:  x3 + x23 + x93 + x170 >= 1
 c58:  x4 + x46 + x50 + x71 + x150 >= 1
 c59:  x37 + x63 + x71 + x91 + x194 >= 1
 c60:  x42 >= 1
 c61:  x5 + x25 + x71 + x74 + x176 >= 1
 c62:  x8 + x11 + x72 + x100 + x124 + x152 + x183 >= 1
 c63:  x97 + x116 + x130 + x158 + x166 + x186 >= 1
 c64:  x107 + x142 + x144 + x150 + x152 + x159 + x176 >= 1
 c65:  x13 + x90 + x126 + x163 >= 1
 c66:  x1 + x6 + x20 + x58 + x107 >= 1
 c67:  x9 + x41 + x59 + x95 + x122 + x137 + x148 >= 1
 c68:  x169 + x187 + x188 >= 1
 c69:  x22 + x35 + x51 + x88 + x141 >= 1
 c70:  x43 + x45 + x49 + x101 + x120 + x144 >= 1
 c71:  x3 + x42 + x128 + x167 + x180 + x186 >= 1
 c72:  x58 + x125 + x132 + x174 >= 1
 c73:  x7 + x54 + x187 >= 1
 c74:  x2 + x99 + x119 + x162 >= 1
 c75:  x10 + x22 + x138 + x179 + x183 >= 1
 c76:  x5 + x6 + x53 + x118 + x124 >= 1
 c77:  x6 + x21 + x58 >= 1
 c78:  x25 + x103 + x136 >= 1
 c79:  x165 + x185 + x187 >= 1
 c80:  x16 + x40 + x59 + x61 + x183 >= 1
 c81:  x20 + x39 >= 1
 c82:  x15 + x46 + x91 + x162 >= 1
 c83:  x3 + x68 + x139 >= 1
 c84:  x42 + x105 + x130 + x140 >= 1
 c85:  x20 + x56 + x58 + x89 + x181 >= 1
 c86:  x55 + x85 + x89 + x108 + x109 + x119 + x120 >= 1
 c87:  x62 + x95 + x100 + x155 + x167 + x181 >= 1
 c88:  x24 + x96 + x135 + x162 + x186 + x192 >= 1
 c89:  x3 + x14 + x176 + x178 >= 1
 c90:  x104 + x156 >= 1
 c91:  x12 + x31 + x68 + x91 + x114 + x117 + x173 + x179 + x186 >= 1
 c92:  x56 + x60 + x70 + x124 >= 1
 c93:  x2 + x4 + x50 + x92 + x132 + x175 >= 1
 c94:  x48 + x91 + x98 + x123 + x145 + x150 + x179 + x192 >= 1
 c95:  x38 + x57 + x71 + x150 + x176 >= 1
 c96:  x16 + x86 + x89 + x106 + x159 >= 1
 c97:  x64 + x110 >= 1
 c98:  x69 + x77 + x136 >= 1
 c99:  x20 + x26 + x29 + x32 + x101 + x154 + x178 >= 1
 c100: x40 + x77 >= 1
 c101: x52 + x61 + x86 + x104 + x190 >= 1
 c102: x131 + x180 >= 1
 c103: x43 + x110 + x122 + x124 + x132 + x157 + x179 >= 1
 c104: x41 + x115 + x116 + x134 + x137 + x139 + x187 >= 1
 c105: x48 + x120 + x148 + x178 + x181 >= 1
 c106: x34 + x55 + x107 + x122 + x163 >= 1
 c107: x43 + x103 + x118 + x171 + x176 >= 1
 c108: x10 + x12 + x186 >= 1
 c109: x5 + x69 + x112 + x127 + x184 >= 1
 c110: x33 + x94 + x98 + x148 >= 1
 c111: x54 + x127 + x137 + x140 >= 1
 c112: x21 + x28 + x87 + x123 + x169 >= 1
 c113: x2 + x180 >= 1
 c114: x23 + x70 + x74 + x76 + x107 + x128 + x164 >= 1
 c115: x25 + x62 + x77 + x86 + x89 + x108 + x182 >= 1
 c116: x21 + x64 + x69 + x93 + x178 >= 1
 c117: x52 + x137 >= 1
 c118: x36 + x80 + x113 + x151 >= 1
 c119: x36 + x64 + x85 + x88 + x191 >= 1
 c120: x45 + x116 + x130 + x157 >= 1
 c121: x97 >= 1
 c122: x76 + x191 >= 1
 c123: x44 + x60 + x170 >= 1
 c124: x39 + x129 + x174 >= 1
 c125: x66 + x83 + x92 + x142 + x176 >= 1
 c126: x1 + x63 + x117 + x135 + x156 >= 1
 c127: x13 + x87 + x126 + x194 >= 1
 c128: x45 + x70 + x147 + x161 >= 1
 c129: x85 + x149 + x162 + x186 >= 1
 c130: x40 + x73 + x147 + x190 >= 1
 c131: x23 + x27 + x31 + x41 + x43 + x93 + x138 >= 1
 c132: x4 + x41 + x87 + x118 + x129 + x153 + x186 >= 1
 c133: x40 + x86 + x89 + x108 + x137 + x144 + x149 + x159 + x166 >= 1
 c134: x94 + x109 + x126 + x148 >= 1
 c135: x22 + x154 + x180 + x184 + x193 >= 1
 c136: x88 + x141 + x155 >= 1
 c137: x31 + x93 + x170 >= 1
 c138: x24 + x99 + x141 + x178 >= 1
 c139: x75 + x82 + x86 + x114 + x139 + x182 + x186 + x188 >= 1
 c140: x7 + x17 + x136 + x152 >= 1
 c141: x14 + x85 + x122 + x123 + x125 + x162 + x179 >= 1
 c142: x57 + x155 + x162 >= 1
 c143: x13 + x26 + x29 + x30 + x78 + x80 + x193 >= 1
 c144: x39 + x45 + x107 + x127 + x168 >= 1
 c145: x15 + x94 + x116 + x155 >= 1
 c146: x9 + x22 + x105 >= 1
 c147: x37 + x62 + x72 + x75 + x119 >= 1
 c148: x2 + x28 + x31 + x152 + x160 + x179 + x182 >= 1
 c149: x23 + x49 + x96 + x126 + x193 >= 1
 c150: x79 + x143 + x189 >= 1
 c151: x102 + x170 + x192 >= 1
 c152: x110 + x184 >= 1
 c153: x47 + x116 + x129 >= 1
 c154: x46 + x68 + x92 + x134 + x156 + x164 >= 1
 c155: x18 + x148 >= 1
 c156: x2 + x115 + x121 >= 1
 c157: x46 + x190 + x192 >= 1
 c158: x84 + x146 + x151 + x159 + x164 + x168 >= 1
 c159: x46 + x55 + x95 + x99 >= 1
 c160: x29 + x138 + x157 >= 1
 c161: x41 + x174 >= 1
 c162: x2 + x74 + x75 + x111 + x149 + x154 >= 1
 c163: x8 + x9 + x168 + x192 + x194 >= 1
 c164: x47 + x131 + x173 + x180 >= 1
 c165: x39 + x73 + x90 >= 1
 c166: x21 + x68 + x73 + x124 + x133 + x135 >= 1
 c167: x51 + x181 >= 1
 c168: x22 + x51 + x55 + x72 + x97 + x114 + x121 + x167 + x192 >= 1
 c169: x5 + x43 + x47 + x76 + x92 + x172 >= 1
 c170: x3 + x49 + x174 >= 1
 c171: x24 + x27 + x28 + x87 + x125 + x162 >= 1
 c172: x8 + x93 + x156 + x187 >= 1
 c173: x2 + x10 + x40 + x100 + x128 + x180 >= 1
 c174: x5 + x26 + x35 + x50 + x73 + x107 + x108 >= 1
 c175: x43 + x44 + x50 + x51 + x63 + x65 + x77 + x85 >= 1
 c176: x26 + x29 + x112 + x113 >= 1
 c177: x50 + x68 + x76 + x99 + x153 + x170 >= 1
 c178: x3 + x70 + x95 + x96 + x108 + x152 + x153 >= 1
 c179: x33 + x45 + x90 + x116 + x119 + x152 + x165 >= 1
 c180: x4 + x53 + x187 >= 1
 c181: x57 + x123 + x128 + x141 + x153 + x182 + x192 >= 1
 c182: x40 + x145 + x152 + x190 >= 1
 c183: x172 + x177 + x179 + x183 + x189 + x193 + x194 >= 1
 c184: x27 + x34 + x41 + x80 + x154 + x156 + x180 >= 1
 c185: x154 + x161 + x171 + x185 + x191 >= 1
 c186: x40 + x42 + x151 + x189 >= 1
 c187: x6 + x34 + x88 + x92 + x117 + x121 + x135 >= 1
 c188: x23 + x40 >= 1
 c189: x4 + x46 + x53 + x115 >= 1
 c190: x1 + x42 + x98 + x102 + x135 + x174 >= 1
 c191: x14 + x25 + x39 + x111 + x112 >= 1
 c192: x44 + x56 + x87 + x149 + x192 >= 1
 c193: x13 + x56 + x108 >= 1
 c194: x112 + x128 + x129 + x160 + x168 + x181 + x191 >= 1
 c195: x17 + x39 + x53 + x85 + x117 + x136 + x169 >= 1
 c196: x30 + x74 + x117 + x133 + x138 >= 1
 c197: x32 + x39 + x45 + x129 + x147 >= 1
 c198: x4 + x11 + x52 + x79 + x125 + x155 + x179 >= 1
 c199: x35 + x47 + x86 + x110 + x111 + x118 + x121 + x135 + x167 + x173 + x183
       >= 1
 c200: x15 + x28 + x48 + x68 + x96 + x98 + x154 >= 1
Bounds
 0 <= x1 <= 1
 0 <= x2 <= 1
 0 <= x3 <= 1
 0 <= x4 <= 1
 0 <= x5 <= 1
 0 <= x6 <= 1
 0 <= x7 <= 1
 0 <= x8 <= 1
 0 <= x9 <= 1
 0 <= x10 <= 1
 0 <= x11 <= 1
 0 <= x12 <= 1
 0 <= x13 <= 1
 0 <= x14 <= 1
 0 <= x15 <= 1
 0 <= x16 <= 1
 0 <= x17 <= 1
 0 <= x18 <= 1
 0 <= x19 <= 1
 0 <= x20 <= 1
 0 <= x21 <= 1
 0 <= x22 <= 1
 0 <= x23 <= 1
 0 <= x24 <= 1
 0 <= x25 <= 1
 0 <= x26 <= 1
 0 <= x27 <= 1
 0 <= x28 <= 1
 0 <= x29 <= 1
 0 <= x30 <= 1
 0 <= x31 <= 1
 0 <= x32 <= 1
 0 <= x33 <= 1
 0 <= x34 <= 1
 0 <= x35 <= 1
 0 <= x36 <= 1
 0 <= x37 <= 1
 0 <= x38 <= 1
 0 <= x39 <= 1
 0 <= x40 <= 1
 0 <= x41 <= 1
 0 <= x42 <= 1
 0 <= x43 <= 1
 0 <= x44 <= 1
 0 <= x45 <= 1
 0 <= x46 <= 1
 0 <= x47 <= 1
 0 <= x48 <= 1
 0 <= x49 <= 1
 0 <= x50 <= 1
 0 <= x51 <= 1
 0 <= x52 <= 1
 0 <= x53 <= 1
 0 <= x54 <= 1
 0 <= x55 <= 1
 0 <= x56 <= 1
 0 <= x57 <= 1
 0 <= x58 <= 1
 0 <= x59 <= 1
 0 <= x60 <= 1
 0 <= x61 <= 1
 0 <= x62 <= 1
 0 <= x63 <= 1
 0 <= x64 <= 1
 0 <= x65 <= 1
 0 <= x66 <= 1
 0 <= x67 <= 1
 0 <= x68 <= 1
 0 <= x69 <= 1
 0 <= x70 <= 1
 0 <= x71 <= 1
 0 <= x72 <= 1
 0 <= x73 <= 1
 0 <= x74 <= 1
 0 <= x75 <= 1
 0 <= x76 <= 1
 0 <= x77 <= 1
 0 <= x78 <= 1
 0 <= x79 <= 1
 0 <= x80 <= 1
 0 <= x81 <= 1
 0 <= x82 <= 1
 0 <= x83 <= 1
 0 <= x84 <= 1
 0 <= x85 <= 1
 0 <= x86 <= 1
 0 <= x87 <= 1
 0 <= x88 <= 1
 0 <= x89 <= 1
 0 <= x90 <= 1
 0 <= x91 <= 1
 0 <= x92 <= 1
 0 <= x93 <= 1
 0 <= x94 <= 1
 0 <= x95 <= 1
 0 <= x96 <= 1
 0 <= x97 <= 1
 0 <= x98 <= 1
 0 <= x99 <= 1
 0 <= x100 <= 1
 0 <= x101 <= 1
 0 <= x102 <= 1
 0 <= x103 <= 1
 0 <= x104 <= 1
 0 <= x105 <= 1
 0 <= x106 <= 1
 0 <= x107 <= 1
 0 <= x108 <= 1
 0 <= x109 <= 1
 0 <= x110 <= 1
 0 <= x111 <= 1
 0 <= x112 <= 1
 0 <= x113 <= 1
 0 <= x114 <= 1
 0 <= x115 <= 1
 0 <= x116 <= 1
 0 <= x117 <= 1
 0 <= x118 <= 1
 0 <= x119 <= 1
 0 <= x120 <= 1
 0 <= x121 <= 1
 0 <= x122 <= 1
 0 <= x123 <= 1
 0 <= x124 <= 1
 0 <= x125 <= 1
 0 <= x126 <= 1
 0 <= x127 <= 1
 0 <= x128 <= 1
 0 <= x129 <= 1
 0 <= x130 <= 1
 0 <= x131 <= 1
 0 <= x132 <= 1
 0 <= x133 <= 1
 0 <= x134 <= 1
 0 <= x135 <= 1
 0 <= x136 <= 1
 0 <= x137 <= 1
 0 <= x138 <= 1
 0 <= x139 <= 1
 0 <= x140 <= 1
 0 <= x141 <= 1
 0 <= x142 <= 1
 0 <= x143 <= 1
 0 <= x144 <= 1
 0 <= x145 <= 1
 0 <= x146 <= 1
 0 <= x147 <= 1
 0 <= x148 <= 1
 0 <= x149 <= 1
 0 <= x150 <= 1
 0 <= x151 <= 1
 0 <= x152 <= 1
 0 <= x153 <= 1
 0 <= x154 <= 1
 0 <= x155 <= 1
 0 <= x156 <= 1
 0 <= x157 <= 1
 0 <= x158 <= 1
 0 <= x159 <= 1
 0 <= x160 <= 1
 0 <= x161 <= 1
 0 <= x162 <= 1
 0 <= x163 <= 1
 0 <= x164 <= 1
 0 <= x165 <= 1
 0 <= x166 <= 1
 0 <= x167 <= 1
 0 <= x168 <= 1
 0 <= x169 <= 1
 0 <= x170 <= 1
 0 <= x171 <= 1
 0 <= x172 <= 1
 0 <= x173 <= 1
 0 <= x174 <= 1
 0 <= x175 <= 1
 0 <= x176 <= 1
 0 <= x177 <= 1
 0 <= x178 <= 1
 0 <= x179 <= 1
 0 <= x180 <= 1
 0 <= x181 <= 1
 0 <= x182 <= 1
 0 <= x183 <= 1
 0 <= x184 <= 1
 0 <= x185 <= 1
 0 <= x186 <= 1
 0 <= x187 <= 1
 0 <= x188 <= 1
 0 <= x189 <= 1
 0 <= x190 <= 1
 0 <= x191 <= 1
 0 <= x192 <= 1
 0 <= x193 <= 1
 0 <= x194 <= 1
Binaries
 x1  x2  x3  x4  x5  x6  x7  x8  x9  x10  x11  x12  x13  x14  x15  x16  x17 
 x18  x19  x20  x21  x22  x23  x24  x25  x26  x27  x28  x29  x30  x31  x32 
 x33  x34  x35  x36  x37  x38  x39  x40  x41  x42  x43  x44  x45  x46  x47 
 x48  x49  x50  x51  x52  x53  x54  x55  x56  x57  x58  x59  x60  x61  x62 
 x63  x64  x65  x66  x67  x68  x69  x70  x71  x72  x73  x74  x75  x76  x77 
 x78  x79  x80  x81  x82  x83  x84  x85  x86  x87  x88  x89  x90  x91  x92 
 x93  x94  x95  x96  x97  x98  x99  x100  x101  x102  x103  x104  x105  x106 
 x107  x108  x109  x110  x111  x112  x113  x114  x115  x116  x117  x118  x119 
 x120  x121  x122  x123  x124  x125  x126  x127  x128  x129  x130  x131  x132 
 x133  x134  x135  x136  x137  x138  x139  x140  x141  x142  x143  x144  x145 
 x146  x147  x148  x149  x150  x151  x152  x153  x154  x155  x156  x157  x158 
 x159  x160  x161  x162  x163  x164  x165  x166  x167  x168  x169  x170  x171 
 x172  x173  x174  x175  x176  x177  x178  x179  x180  x181  x182  x183  x184 
 x185  x186  x187  x188  x189  x190  x191  x192  x193  x194 
End
